data/medium_1.dzn
num_nodi = 6;
ufficio_postale = 5;
dim_borsa = 40;
max_step = 15;
elenco_lettere = [9, 1, 20, 19, 0, 0];
distanze = [|0, 16, 18, 13, 13, 8
|12, 0, 17, 23, 3, 12
|2, 16, 0, 3, 10, 8
|1, 21, 11, 0, 22, 15
|14, 17, 1, 10, 0, 24
|25, 9, 20, 23, 6, 0
|];
