data/medium_1.lp
node(1..6).

ufficio_postale(5).

dim_borsa(40).

time(1..15).

lettere(1,9).
lettere(2,1).
lettere(3,20).
lettere(4,19).
lettere(5,0).
lettere(6,0).

costo_arco(1, 1, 0).
costo_arco(1, 2, 16).
costo_arco(1, 3, 18).
costo_arco(1, 4, 13).
costo_arco(1, 5, 13).
costo_arco(1, 6, 8).

costo_arco(2, 1, 12).
costo_arco(2, 2, 0).
costo_arco(2, 3, 17).
costo_arco(2, 4, 23).
costo_arco(2, 5, 3).
costo_arco(2, 6, 12).

costo_arco(3, 1, 2).
costo_arco(3, 2, 16).
costo_arco(3, 3, 0).
costo_arco(3, 4, 3).
costo_arco(3, 5, 10).
costo_arco(3, 6, 8).

costo_arco(4, 1, 1).
costo_arco(4, 2, 21).
costo_arco(4, 3, 11).
costo_arco(4, 4, 0).
costo_arco(4, 5, 22).
costo_arco(4, 6, 15).

costo_arco(5, 1, 14).
costo_arco(5, 2, 17).
costo_arco(5, 3, 1).
costo_arco(5, 4, 10).
costo_arco(5, 5, 0).
costo_arco(5, 6, 24).

costo_arco(6, 1, 25).
costo_arco(6, 2, 9).
costo_arco(6, 3, 20).
costo_arco(6, 4, 23).
costo_arco(6, 5, 6).
costo_arco(6, 6, 0).

